     Program PWSCF v.5.1 starts on 18Jun2018 at  4:19: 1

     Current dimensions of program PWSCF are:
     Max number of different atomic species (ntypx) = 10
     Max number of k-points (npk) =  40000
     Max angular momentum in pseudopotentials (lmaxx) =  3
               file C.pbe-n-kjpaw_psl.1.0.0.UPF: wavefunction(s)  2S 2P renormalized
               file O.pbe-n-kjpaw_psl.0.1.U: wavefunction(s)  2P renormalized

     Subspace diagonalization in iterative solution of the eigenvalue problem:
     a serial algorithm will be used

     bravais-lattice index     =            4
     lattice parameter (alat)  =       5.4490  a.u.
     unit-cell volume          =    1040.6255 (a.u.)^3
     number of atoms/cell      =            6
     number of atomic types    =            3
     number of electrons       =        86.00
     number of Kohn-Sham states=           52
     kinetic-energy cutoff     =      40.0000  Ry
     charge density cutoff     =     320.0000  Ry
     convergence threshold     =      1.0E-06
     mixing beta               =       0.7000
     number of iterations used =            8  plain     mixing
     Exchange-correlation      =  SLA  PW   PBX  PBC ( 1  4  3  4 0)
     nstep                     =           50

     celldm(1)=   5.449000  celldm(2)=   0.000000  celldm(3)=   7.427000
     celldm(4)=   0.000000  celldm(5)=   0.000000  celldm(6)=   0.000000

     crystal axes: (cart. coord. in units of alat)
               a(1) = (   1.000000   0.000000   0.000000 )
               a(2) = (  -0.500000   0.866025   0.000000 )
               a(3) = (   0.000000   0.000000   7.427000 )

     reciprocal axes: (cart. coord. in units 2 pi/alat)
               b(1) = (  1.000000  0.577350 -0.000000 )
               b(2) = (  0.000000  1.154701  0.000000 )
               b(3) = (  0.000000 -0.000000  0.134644 )

     PseudoPot. # 1 for Au read from file:
     /home/oropebuen/Documents/Job/Absortion/SSSP_efficiency_pseudos/Au_ONCV_PBE-1.0.upf
     MD5 check sum: 1009843a674e36925f098327e430af60
     Pseudo is Norm-conserving, Zval = 19.0
     Generated using ONCVPSP code by D. R. Hamann
     Using radial grid of  602 points,  8 beta functions with:
                l(1) =   0
                l(2) =   0
                l(3) =   1
                l(4) =   1
                l(5) =   2
                l(6) =   2
                l(7) =   3
                l(8) =   3

     PseudoPot. # 2 for  C read from file:
     /home/oropebuen/Documents/Job/Absortion/SSSP_efficiency_pseudos/C.pbe-n-kjpaw_psl.1.0.0.UPF
     MD5 check sum: 8e281b34a927efac7e739263a90d7aed
     Pseudo is Projector augmented-wave + core cor, Zval =  4.0
     Generated using "atomic" code by A. Dal Corso  v.5.1
     Shape of augmentation charge: PSQ
     Using radial grid of 1073 points,  4 beta functions with:
                l(1) =   0
                l(2) =   0
                l(3) =   1
                l(4) =   1
     Q(r) pseudized with 0 coefficients

     PseudoPot. # 3 for  O read from file:
     /home/oropebuen/Documents/Job/Absortion/SSSP_efficiency_pseudos/O.pbe-n-kjpaw_psl.0.1.U
     MD5 check sum: 3f94a2996a3169367d6eb21d9b593f20
     Pseudo is Projector augmented-wave + core cor, Zval =  6.0
     Generated using "atomic" code by A. Dal Corso  v.5.0.99 svn rev. 10869
     Shape of augmentation charge: BESSEL
     Using radial grid of 1095 points,  4 beta functions with:
                l(1) =   0
                l(2) =   0
                l(3) =   1
                l(4) =   1
     Q(r) pseudized with 0 coefficients

     atomic species   valence    mass     pseudopotential
        Au            19.00   196.96600     Au( 1.00)
        C              4.00    12.01070      C( 1.00)
        O              6.00    15.99940      O( 1.00)

      2 Sym. Ops. (no inversion) found

   Cartesian axes

     site n.     atom                  positions (alat units)
         1           Au  tau(   1) = (   0.0000000   0.0000000   0.0000000  )
         2           Au  tau(   2) = (   0.5000000   0.2886750   0.8164970  )
         3           Au  tau(   3) = (   0.0000000   0.5773500   1.6329930  )
         4           Au  tau(   4) = (   0.0000000   0.0000000   2.4494900  )
         5           C   tau(   5) = (   0.5000000   0.0000000   3.0737340  )
         6           O   tau(   6) = (   0.5000010   0.0010000   3.4648430  )

     number of k points=    52  gaussian smearing, width (Ry)=  0.0100
                       cart. coord. in units 2pi/alat
        k(    1) = (   0.0625000   0.1082532  -0.0673219), wk =   0.0416667
        k(    2) = (   0.0625000   0.2525907  -0.0673219), wk =   0.0416667
        k(    3) = (   0.0625000   0.3969283  -0.0673219), wk =   0.0416667
        k(    4) = (   0.0625000   0.5412659  -0.0673219), wk =   0.0416667
        k(    5) = (   0.0625000  -0.4690971  -0.0673219), wk =   0.0416667
        k(    6) = (   0.0625000  -0.3247595  -0.0673219), wk =   0.0416667
        k(    7) = (   0.0625000  -0.1804220  -0.0673219), wk =   0.0416667
        k(    8) = (   0.0625000  -0.0360844  -0.0673219), wk =   0.0416667
        k(    9) = (   0.1875000   0.3247595  -0.0673219), wk =   0.0416667
        k(   10) = (   0.1875000   0.4690971  -0.0673219), wk =   0.0416667
        k(   11) = (   0.1875000   0.6134347  -0.0673219), wk =   0.0416667
        k(   12) = (   0.1875000  -0.3969283  -0.0673219), wk =   0.0416667
        k(   13) = (   0.1875000  -0.2525907  -0.0673219), wk =   0.0416667
        k(   14) = (   0.1875000  -0.1082532  -0.0673219), wk =   0.0416667
        k(   15) = (   0.3125000   0.5412659  -0.0673219), wk =   0.0416667
        k(   16) = (   0.3125000   0.6856034  -0.0673219), wk =   0.0416667
        k(   17) = (   0.3125000  -0.3247595  -0.0673219), wk =   0.0416667
        k(   18) = (   0.3125000  -0.1804220  -0.0673219), wk =   0.0416667
        k(   19) = (   0.4375000   0.7577722  -0.0673219), wk =   0.0416667
        k(   20) = (   0.4375000  -0.2525907  -0.0673219), wk =   0.0416667
        k(   21) = (   0.1250000   0.0000000  -0.0673219), wk =   0.0208333
        k(   22) = (  -0.1875000   0.1804220  -0.0673219), wk =   0.0416667
        k(   23) = (   0.2500000   0.0721688  -0.0673219), wk =   0.0416667
        k(   24) = (  -0.3125000   0.2525907  -0.0673219), wk =   0.0416667
        k(   25) = (   0.3750000   0.1443376  -0.0673219), wk =   0.0416667
        k(   26) = (  -0.4375000   0.3247595  -0.0673219), wk =   0.0416667
        k(   27) = (   0.5000000   0.2165064  -0.0673219), wk =   0.0416667
        k(   28) = (   0.4375000  -0.1804220  -0.0673219), wk =   0.0416667
        k(   29) = (  -0.3750000  -0.2886751  -0.0673219), wk =   0.0416667
        k(   30) = (   0.3125000  -0.1082532  -0.0673219), wk =   0.0416667
        k(   31) = (  -0.2500000  -0.2165064  -0.0673219), wk =   0.0416667
        k(   32) = (   0.1875000  -0.0360844  -0.0673219), wk =   0.0416667
        k(   33) = (  -0.1250000  -0.1443376  -0.0673219), wk =   0.0416667
        k(   34) = (   0.0000000  -0.0721688  -0.0673219), wk =   0.0208333
        k(   35) = (   0.3750000   0.0000000  -0.0673219), wk =   0.0208333
        k(   36) = (  -0.3125000   0.3969283  -0.0673219), wk =   0.0416667
        k(   37) = (   0.5000000   0.0721688  -0.0673219), wk =   0.0416667
        k(   38) = (  -0.4375000   0.4690971  -0.0673219), wk =   0.0416667
        k(   39) = (   0.6250000   0.1443376  -0.0673219), wk =   0.0416667
        k(   40) = (   0.4375000  -0.0360844  -0.0673219), wk =   0.0416667
        k(   41) = (  -0.2500000  -0.3608439  -0.0673219), wk =   0.0416667
        k(   42) = (   0.3125000   0.0360844  -0.0673219), wk =   0.0416667
        k(   43) = (  -0.1250000  -0.2886751  -0.0673219), wk =   0.0416667
        k(   44) = (   0.0000000  -0.2165064  -0.0673219), wk =   0.0208333
        k(   45) = (   0.6250000   0.0000000  -0.0673219), wk =   0.0208333
        k(   46) = (  -0.4375000   0.6134347  -0.0673219), wk =   0.0416667
        k(   47) = (   0.7500000   0.0721688  -0.0673219), wk =   0.0416667
        k(   48) = (   0.4375000   0.1082532  -0.0673219), wk =   0.0416667
        k(   49) = (  -0.1250000  -0.4330127  -0.0673219), wk =   0.0416667
        k(   50) = (   0.0000000  -0.3608439  -0.0673219), wk =   0.0208333
        k(   51) = (   0.8750000   0.0000000  -0.0673219), wk =   0.0208333
        k(   52) = (   0.0000000  -0.5051815  -0.0673219), wk =   0.0208333

     Largest allocated arrays     est. size (Mb)     dimensions
     Largest temporary arrays     est. size (Mb)     dimensions

     Check: negative/imaginary core charge=   -0.000003    0.000000

     Initial potential from superposition of free atoms
     Check: negative starting charge=   -0.000179

     starting charge   85.91012, renormalised to   86.00000

     negative rho (up, down):  1.790E-04 0.000E+00
     Starting wfc are    8 randomized atomic wfcs +   44 random wfc
     Checking if some PAW data can be deallocated...

     Self-consistent Calculation

     iteration #  1     ecut=    40.00 Ry     beta=0.70
     Davidson diagonalization with overlap
     ethr =  1.00E-02,  avg # of iterations =  7.1

     Threshold (ethr) on eigenvalues was too large:
     Diagonalizing with lowered threshold

     Davidson diagonalization with overlap
     ethr =  6.36E-04,  avg # of iterations =  1.0

     negative rho (up, down):  1.509E-04 0.000E+00

     total energy              =   -1158.44403221 Ry
     Harris-Foulkes estimate   =   -1158.89694161 Ry
     estimated scf accuracy    <       0.54775388 Ry

[...]

     End of self-consistent calculation

          k = 0.0625 0.1083-0.0673 (  4518 PWs)   bands (ev):

   -98.8416 -98.1300 -98.0326 -97.5941 -50.2088 -50.1078 -50.0097 -49.4719
   -49.3676 -49.3527 -49.3217 -49.2756 -49.2605 -48.8553 -48.8385 -48.8207
   -17.4782  -3.8374  -1.5516  -1.0162   0.0356   0.6780   0.8449   1.2363
     1.3087   2.2437   2.5032   2.6829   2.7823   2.9758   3.0724   3.1227
     3.3193   3.4480   3.6429   3.7872   3.8881   3.9563   4.4836   4.6010
     4.8856   5.2082   5.5431   5.8382   7.9023  11.0082  11.2873  11.8105
    12.7801  13.1509  14.7503  15.2678

[...]

          k =-0.1875 0.1804-0.0673 (  4466 PWs)   bands (ev):

[...]

     the Fermi energy is     7.6046 ev

!    total energy              =   -1158.81711583 Ry
     Harris-Foulkes estimate   =   -1158.81711610 Ry
     estimated scf accuracy    <       0.00000033 Ry

     The total energy is the sum of the following terms:

     one-electron contribution =   -6246.66954805 Ry
     hartree contribution      =    3128.34056559 Ry
     xc contribution           =    -113.43141424 Ry
     ewald contribution        =    2088.65517098 Ry
     one-center paw contrib.   =     -15.71053960 Ry
     smearing contrib. (-TS)   =      -0.00135052 Ry

     convergence has been achieved in  13 iterations

     Forces acting on atoms (Ry/au):

     negative rho (up, down):  1.458E-04 0.000E+00
     atom    1 type  1   force =     0.00000000    0.00015792   -0.01925276
     atom    2 type  1   force =     0.00000000   -0.00001258    0.00134720
     atom    3 type  1   force =     0.00000000    0.00100659    0.00024237
     atom    4 type  1   force =     0.00000000   -0.00099254    0.02655672
     atom    5 type  2   force =     0.00000000   -0.00069991   -0.14786504
     atom    6 type  3   force =     0.00000000    0.00054052    0.13897151

     Total force =     0.205567     Total SCF correction =     0.005073

     BFGS Geometry Optimization

     number of scf cycles    =   1
     number of bfgs steps    =   0

     energy   new            =   -1158.8171158339 Ry

     new trust radius        =       0.1478666949 bohr
     new conv_thr            =       0.0000010000 Ry

ATOMIC_POSITIONS (alat)
Au      -0.000000000   0.000028981  -0.003533265
Au       0.500000000   0.288672692   0.816744238
Au       0.000000000   0.577534729   1.633037480
Au       0.000000000  -0.000182151   2.454363686
C        0.500000000  -0.000128447   3.046597821
O        0.500001000   0.001099197   3.490347040

     Writing output data file CO_Au_bridge.save
     Check: negative starting charge=   -0.000179
     NEW-OLD atomic charge density approx. for the potential

     Check: negative/imaginary core charge=   -0.000003    0.000000
     Check: negative starting charge=   -0.000176

[...]

     energy   old            =   -1158.8171158339 Ry
     energy   new            =   -1158.7839685818 Ry

     CASE: energy  _new > energy  _old

[...]

     CASE: energy  _new < energy  _old

[...]

     Total force =     0.027652     Total SCF correction =     0.003982
     SCF correction compared to forces is large: reduce conv_thr to get better values

[...]

     Total force =     0.006128     Total SCF correction =     0.000540

[...]

     number of scf cycles    =  22
     number of bfgs steps    =  20

     energy   old            =   -1158.8315565826 Ry
     energy   new            =   -1158.8315642626 Ry

     CASE: energy  _new < energy  _old

     new trust radius        =       0.0040276868 bohr
     new conv_thr            =       0.0000000100 Ry

ATOMIC_POSITIONS (alat)
Au       0.000000000   0.001354372  -0.081982297
Au       0.500000000   0.294375621   0.790562881
Au       0.000000000   0.597963138   1.659453085
Au       0.000000000  -0.021110101   2.516792424
C        0.500000000  -0.006265844   3.074425458
O        0.500001000   0.000707813   3.478305448

     Writing output data file CO_Au_bridge.save
     Check: negative starting charge=   -0.000165
     NEW-OLD atomic charge density approx. for the potential

     Check: negative/imaginary core charge=   -0.000003    0.000000
     Check: negative starting charge=   -0.000165

[...]

     Self-consistent Calculation

[...]

     Threshold (ethr) on eigenvalues was too large:
     Diagonalizing with lowered threshold

     Davidson diagonalization with overlap
     ethr =  4.72E-09,  avg # of iterations =  2.0

[...]

     total energy              =   -1158.83156779 Ry
     Harris-Foulkes estimate   =   -1158.83156781 Ry
     estimated scf accuracy    <       0.00000006 Ry

     iteration #  8     ecut=    40.00 Ry     beta=0.70
     Davidson diagonalization with overlap
     ethr =  6.81E-11,  avg # of iterations =  2.0

     negative rho (up, down):  1.347E-04 0.000E+00

     End of self-consistent calculation

[...]

          k =-0.1250-0.4330-0.0673 (  4428 PWs)   bands (ev):

[...]

          k = 0.0000-0.5052-0.0673 (  4396 PWs)   bands (ev):

   -99.4108 -98.2428 -98.0531 -97.6271 -50.7947 -50.7551 -50.6655 -49.6253
   -49.5252 -49.5094 -49.4435 -49.3288 -49.3043 -49.0427 -48.9212 -48.8151
   -16.3073  -3.1061  -1.2815  -0.5792   0.6714   0.7299   0.9741   1.1269
     1.5587   1.7985   1.8884   2.4654   2.8655   2.8844   3.5842   3.7378
     4.2492   4.3421   4.5413   4.7518   5.2663   5.3079   5.5127   5.6999
     5.9743   6.0877   6.8943   7.7803   9.2708  10.6530  10.8696  11.3525
    11.8928  13.1768  14.6219  15.4017

     the Fermi energy is     7.4006 ev

!    total energy              =   -1158.83156779 Ry
     Harris-Foulkes estimate   =   -1158.83156780 Ry
     estimated scf accuracy    <          6.6E-09 Ry

     The total energy is the sum of the following terms:

     one-electron contribution =   -5756.94845493 Ry
     hartree contribution      =    2883.06613950 Ry
     xc contribution           =    -113.30216835 Ry
     ewald contribution        =    1844.06143033 Ry
     one-center paw contrib.   =     -15.70771817 Ry
     smearing contrib. (-TS)   =      -0.00079618 Ry

     convergence has been achieved in   8 iterations

     Forces acting on atoms (Ry/au):

     negative rho (up, down):  1.347E-04 0.000E+00
     atom    1 type  1   force =     0.00000000    0.00009854   -0.00005685
     atom    2 type  1   force =     0.00000000    0.00051121    0.00078652
     atom    3 type  1   force =     0.00000000    0.00065106   -0.00012173
     atom    4 type  1   force =     0.00000000   -0.00034447   -0.00010406
     atom    5 type  2   force =     0.00000000   -0.00045532   -0.00076869
     atom    6 type  3   force =     0.00000000   -0.00046102    0.00026481

     Total force =     0.001594     Total SCF correction =     0.000441
     SCF correction compared to forces is large: reduce conv_thr to get better values

     bfgs converged in  23 scf cycles and  21 bfgs steps
     (criteria: energy <  1.0E-04, force <  1.0E-03)

     End of BFGS Geometry Optimization

     Final energy   =   -1158.8315677922 Ry
Begin final coordinates

ATOMIC_POSITIONS (alat)
Au       0.000000000   0.001354372  -0.081982297
Au       0.500000000   0.294375621   0.790562881
Au       0.000000000   0.597963138   1.659453085
Au       0.000000000  -0.021110101   2.516792424
C        0.500000000  -0.006265844   3.074425458
O        0.500001000   0.000707813   3.478305448
End final coordinates

     Writing output data file CO_Au_bridge.save

     General routines

     Parallel routines

     PAW routines

   This run was terminated on:  11:11:18  18Jun2018

   JOB DONE.